183 185 184 197 196 195 194 193 219 218 220 221 222 224 223 217 216 215 214 213 212 211 210 209 208 207 206 205 198 199 200 201 202 204 203 165 164 166 167 163 168 162 160 154 155 156 159 157 158 145 146 153 147 148 152 149 150 151 142 143 144 141 140 139 138 137 136 135 134 133 132 129 130 131 113 161 112 114 115 116 128 127 126 125 124 69 70 68 67 66 65 71 72 73 74 75 76 77 78 62 64 63 61 79 80 81 60 59 58 57 82 83 56 55 53 54 52 50 51 84 85 86 90 87 88 89 92 91 93 94 97 96 95 118 119 120 121 122 123 117 106 105 104 103 102 100 101 551 550 559 558 557 556 552 99 98 553 554 555 45 46 49 48 47 44 43 42 39 41 40 38 37 36 35 34 33 32 30 31 22 23 21 24 25 28 29 27 26 567 566 565 564 563 562 561 560 549 548 545 546 547 544 543 541 542 107 110 111 109 108 173 174 175 172 170 171 169 180 181 179 177 176 540 538 537 539 478 477 479 480 476 475 482 481 483 485 484 536 535 487 486 490 491 492 493 524 525 526 527 512 511 510 509 513 514 515 516 517 522 523 521 520 519 518 495 494 472 473 474 570 569 568 20 19 18 17 16 15 14 13 12 11 10 9 8 7 6 5 4 3 2 1 0 573 572 571 466 467 468 469 471 470 465 464 496 497 463 462 461 460 459 458 457 456 455 454 439 443 444 445 442 446 447 448 449 450 441 440 453 452 499 500 501 498 502 503 504 505 308 309 310 311 451 312 313 316 314 315 377 378 380 379 376 375 374 373 322 323 324 325 326 329 328 327 369 370 372 371 396 395 394 393 392 391 388 389 390 381 431 433 434 435 436 438 437 432 430 429 428 427 426 425 424 423 422 421 420 419 418 417 413 414 416 415 352 351 350 349 348 347 362 363 361 359 358 357 354 353 355 356 412 411 410 384 383 382 386 387 385 409 408 407 405 404 403 402 360 401 400 406 399 397 398 364 346 345 344 365 368 367 366 342 343 341 340 330 331 332 333 339 338 337 336 335 334 283 284 285 286 287 280 281 282 279 278 277 276 288 289 290 275 274 273 272 269 268 270 292 291 293 294 295 296 267 271 266 265 264 263 262 261 260 259 258 299 298 297 321 320 319 317 318 305 306 304 303 307 506 507 508 302 301 300 257 256 255 253 254 252 251 250 249 248 241 242 243 244 245 247 246 238 239 240 237 236 235 234 232 233 528 529 530 531 532 533 489 488 534 231 230 229 228 227 189 225 226 190 191 192 186 188 187 178 182